50
7295

406 68
922 113
909 405
814 895
761 198
842 502
590 339
239 655
966 262
837 525
983 788
626 127
893 530
762 601
448 324
169 402
463 204
421 408
834 579
71 72
802 524
33 828
251 773
183 79
385 789
273 687
652 314
4 130
284 604
162 372
564 825
865 396
981 469
601 419
263 868
987 452
49 635
217 196
47 423
301 502
914 909
839 760
907 578
598 462
91 939
233 25
809 728
815 72
651 413
34 746
